p cnf 958 2458
51 -692 -693 0
-51 692 0
-51 693 0
52 -51 -694 0
-52 51 0
-52 694 0
53 -695 -696 0
-53 695 0
-53 696 0
54 -53 -697 0
-54 53 0
-54 697 0
55 -698 -699 0
-55 698 0
-55 699 0
56 -8 -700 0
-56 8 0
-56 700 0
57 -56 -701 0
-57 56 0
-57 701 0
58 -702 -55 0
-58 702 0
-58 55 0
59 -703 -704 0
-59 703 0
-59 704 0
60 -59 -12 0
-60 59 0
-60 12 0
61 -705 -58 0
-61 705 0
-61 58 0
62 -706 -13 0
-62 706 0
-62 13 0
63 -62 -2 0
-63 62 0
-63 2 0
64 -707 -61 0
-64 707 0
-64 61 0
65 -708 -5 0
-65 708 0
-65 5 0
66 -65 -709 0
-66 65 0
-66 709 0
67 -710 -64 0
-67 710 0
-67 64 0
68 -17 -6 0
-68 17 0
-68 6 0
69 -68 -711 0
-69 68 0
-69 711 0
70 -712 -67 0
-70 712 0
-70 67 0
71 -713 -704 0
-71 713 0
-71 704 0
72 -71 -16 0
-72 71 0
-72 16 0
73 -714 -70 0
-73 714 0
-73 70 0
74 -20 -696 0
-74 20 0
-74 696 0
75 -74 -715 0
-75 74 0
-75 715 0
76 -716 -73 0
-76 716 0
-76 73 0
77 -22 -709 0
-77 22 0
-77 709 0
78 -77 -23 0
-78 77 0
-78 23 0
79 -717 -76 0
-79 717 0
-79 76 0
80 -24 -7 0
-80 24 0
-80 7 0
81 -80 -15 0
-81 80 0
-81 15 0
82 -718 -79 0
-82 718 0
-82 79 0
83 -22 -719 0
-83 22 0
-83 719 0
84 -83 -720 0
-84 83 0
-84 720 0
85 -721 -82 0
-85 721 0
-85 82 0
86 -722 -7 0
-86 722 0
-86 7 0
87 -86 -19 0
-87 86 0
-87 19 0
88 -723 -85 0
-88 723 0
-88 85 0
89 -704 -5 0
-89 704 0
-89 5 0
90 -89 -720 0
-90 89 0
-90 720 0
91 -724 -88 0
-91 724 0
-91 88 0
92 -725 -4 0
-92 725 0
-92 4 0
93 -92 -726 0
-93 92 0
-93 726 0
94 -727 -91 0
-94 727 0
-94 91 0
95 -728 -692 0
-95 728 0
-95 692 0
96 -95 -28 0
-96 95 0
-96 28 0
97 -729 -94 0
-97 729 0
-97 94 0
98 -10 -3 0
-98 10 0
-98 3 0
99 -98 -701 0
-99 98 0
-99 701 0
100 -730 -97 0
-100 730 0
-100 97 0
101 -4 -1 0
-101 4 0
-101 1 0
102 -101 -722 0
-102 101 0
-102 722 0
103 -731 -100 0
-103 731 0
-103 100 0
104 -30 -732 0
-104 30 0
-104 732 0
105 -104 -711 0
-105 104 0
-105 711 0
106 -733 -103 0
-106 733 0
-106 103 0
107 -30 -20 0
-107 30 0
-107 20 0
108 -107 -734 0
-108 107 0
-108 734 0
109 -735 -106 0
-109 735 0
-109 106 0
110 -736 -14 0
-110 736 0
-110 14 0
111 -110 -726 0
-111 110 0
-111 726 0
112 -737 -109 0
-112 737 0
-112 109 0
113 -738 -739 0
-113 738 0
-113 739 0
114 -113 -3 0
-114 113 0
-114 3 0
115 -740 -112 0
-115 740 0
-115 112 0
116 -738 -27 0
-116 738 0
-116 27 0
117 -116 -741 0
-117 116 0
-117 741 0
118 -742 -115 0
-118 742 0
-118 115 0
119 -743 -32 0
-119 743 0
-119 32 0
120 -119 -744 0
-120 119 0
-120 744 0
121 -745 -118 0
-121 745 0
-121 118 0
122 -732 -713 0
-122 732 0
-122 713 0
123 -122 -35 0
-123 122 0
-123 35 0
124 -746 -121 0
-124 746 0
-124 121 0
125 -36 -692 0
-125 36 0
-125 692 0
126 -125 -25 0
-126 125 0
-126 25 0
127 -747 -124 0
-127 747 0
-127 124 0
128 -5 -4 0
-128 5 0
-128 4 0
129 -128 -37 0
-129 128 0
-129 37 0
130 -748 -127 0
-130 748 0
-130 127 0
131 -749 -739 0
-131 749 0
-131 739 0
132 -131 -750 0
-132 131 0
-132 750 0
133 -751 -130 0
-133 751 0
-133 130 0
134 -31 -706 0
-134 31 0
-134 706 0
135 -134 -752 0
-135 134 0
-135 752 0
136 -753 -133 0
-136 753 0
-136 133 0
137 -131 -754 0
-137 131 0
-137 754 0
138 -755 -136 0
-138 755 0
-138 136 0
139 -756 -32 0
-139 756 0
-139 32 0
140 -139 -12 0
-140 139 0
-140 12 0
141 -757 -138 0
-141 757 0
-141 138 0
142 -756 -736 0
-142 756 0
-142 736 0
143 -142 -758 0
-143 142 0
-143 758 0
144 -759 -141 0
-144 759 0
-144 141 0
145 -30 -29 0
-145 30 0
-145 29 0
146 -145 -2 0
-146 145 0
-146 2 0
147 -760 -144 0
-147 760 0
-147 144 0
148 -761 -762 0
-148 761 0
-148 762 0
149 -148 -39 0
-149 148 0
-149 39 0
150 -763 -147 0
-150 763 0
-150 147 0
151 -43 -13 0
-151 43 0
-151 13 0
152 -151 -44 0
-152 151 0
-152 44 0
153 -764 -150 0
-153 764 0
-153 150 0
154 -765 -29 0
-154 765 0
-154 29 0
155 -154 -35 0
-155 154 0
-155 35 0
156 -766 -153 0
-156 766 0
-156 153 0
157 -43 -709 0
-157 43 0
-157 709 0
158 -157 -694 0
-158 157 0
-158 694 0
159 -767 -156 0
-159 767 0
-159 156 0
160 -24 -704 0
-160 24 0
-160 704 0
161 -160 -11 0
-161 160 0
-161 11 0
162 -768 -159 0
-162 768 0
-162 159 0
163 -732 -14 0
-163 732 0
-163 14 0
164 -163 -744 0
-164 163 0
-164 744 0
165 -769 -162 0
-165 769 0
-165 162 0
166 -770 -42 0
-166 770 0
-166 42 0
167 -166 -771 0
-167 166 0
-167 771 0
168 -772 -165 0
-168 772 0
-168 165 0
169 -26 -708 0
-169 26 0
-169 708 0
170 -169 -2 0
-170 169 0
-170 2 0
171 -773 -168 0
-171 773 0
-171 168 0
172 -31 -10 0
-172 31 0
-172 10 0
173 -172 -6 0
-173 172 0
-173 6 0
174 -774 -171 0
-174 774 0
-174 171 0
175 -15 -4 0
-175 15 0
-175 4 0
176 -175 -21 0
-176 175 0
-176 21 0
177 -775 -174 0
-177 775 0
-177 174 0
178 -15 -12 0
-178 15 0
-178 12 0
179 -178 -776 0
-179 178 0
-179 776 0
180 -777 -177 0
-180 777 0
-180 177 0
181 -744 -7 0
-181 744 0
-181 7 0
182 -181 -48 0
-182 181 0
-182 48 0
183 -778 -180 0
-183 778 0
-183 180 0
184 -706 -719 0
-184 706 0
-184 719 0
185 -184 -23 0
-185 184 0
-185 23 0
186 -779 -183 0
-186 779 0
-186 183 0
187 -761 -756 0
-187 761 0
-187 756 0
188 -187 -780 0
-188 187 0
-188 780 0
189 -781 -186 0
-189 781 0
-189 186 0
190 -738 -703 0
-190 738 0
-190 703 0
191 -190 -720 0
-191 190 0
-191 720 0
192 -782 -189 0
-192 782 0
-192 189 0
193 -783 -2 0
-193 783 0
-193 2 0
194 -193 -48 0
-194 193 0
-194 48 0
195 -784 -192 0
-195 784 0
-195 192 0
196 -771 -739 0
-196 771 0
-196 739 0
197 -196 -750 0
-197 196 0
-197 750 0
198 -785 -195 0
-198 785 0
-198 195 0
199 -758 -5 0
-199 758 0
-199 5 0
200 -199 -40 0
-200 199 0
-200 40 0
201 -786 -198 0
-201 786 0
-201 198 0
202 -47 -728 0
-202 47 0
-202 728 0
203 -202 -787 0
-203 202 0
-203 787 0
204 -788 -201 0
-204 788 0
-204 201 0
205 -46 -8 0
-205 46 0
-205 8 0
206 -205 -37 0
-206 205 0
-206 37 0
207 -789 -204 0
-207 789 0
-207 204 0
208 -736 -1 0
-208 736 0
-208 1 0
209 -208 -787 0
-209 208 0
-209 787 0
210 -790 -207 0
-210 790 0
-210 207 0
211 -734 -7 0
-211 734 0
-211 7 0
212 -211 -34 0
-212 211 0
-212 34 0
213 -791 -210 0
-213 791 0
-213 210 0
214 -29 -725 0
-214 29 0
-214 725 0
215 -214 -44 0
-215 214 0
-215 44 0
216 -792 -213 0
-216 792 0
-216 213 0
217 -41 -693 0
-217 41 0
-217 693 0
218 -217 -34 0
-218 217 0
-218 34 0
219 -793 -216 0
-219 793 0
-219 216 0
220 -749 -27 0
-220 749 0
-220 27 0
221 -220 -709 0
-221 220 0
-221 709 0
222 -794 -219 0
-222 794 0
-222 219 0
223 -41 -36 0
-223 41 0
-223 36 0
224 -223 -719 0
-224 223 0
-224 719 0
225 -795 -222 0
-225 795 0
-225 222 0
226 -743 -26 0
-226 743 0
-226 26 0
227 -226 -752 0
-227 226 0
-227 752 0
228 -796 -225 0
-228 796 0
-228 225 0
229 -738 -693 0
-229 738 0
-229 693 0
230 -229 -754 0
-230 229 0
-230 754 0
231 -797 -228 0
-231 797 0
-231 228 0
232 -728 -4 0
-232 728 0
-232 4 0
233 -232 -695 0
-233 232 0
-233 695 0
234 -798 -231 0
-234 798 0
-234 231 0
235 -799 -24 0
-235 799 0
-235 24 0
236 -235 -694 0
-236 235 0
-236 694 0
237 -800 -234 0
-237 800 0
-237 234 0
238 -801 -700 0
-238 801 0
-238 700 0
239 -238 -17 0
-239 238 0
-239 17 0
240 -802 -237 0
-240 802 0
-240 237 0
241 -27 -736 0
-241 27 0
-241 736 0
242 -241 -754 0
-242 241 0
-242 754 0
243 -803 -240 0
-243 803 0
-243 240 0
244 -49 -2 0
-244 49 0
-244 2 0
245 -244 -40 0
-245 244 0
-245 40 0
246 -804 -243 0
-246 804 0
-246 243 0
247 -21 -704 0
-247 21 0
-247 704 0
248 -247 -758 0
-248 247 0
-248 758 0
249 -805 -246 0
-249 805 0
-249 246 0
250 -806 -752 0
-250 806 0
-250 752 0
251 -250 -35 0
-251 250 0
-251 35 0
252 -807 -249 0
-252 807 0
-252 249 0
253 -749 -738 0
-253 749 0
-253 738 0
254 -253 -22 0
-254 253 0
-254 22 0
255 -808 -252 0
-255 808 0
-255 252 0
256 -39 -31 0
-256 39 0
-256 31 0
257 -256 -50 0
-257 256 0
-257 50 0
258 -809 -255 0
-258 809 0
-258 255 0
259 -799 -713 0
-259 799 0
-259 713 0
260 -259 -25 0
-260 259 0
-260 25 0
261 -810 -258 0
-261 810 0
-261 258 0
262 -42 -697 0
-262 42 0
-262 697 0
263 -262 -711 0
-263 262 0
-263 711 0
264 -811 -261 0
-264 811 0
-264 261 0
265 -44 -728 0
-265 44 0
-265 728 0
266 -265 -35 0
-266 265 0
-266 35 0
267 -812 -264 0
-267 812 0
-267 264 0
268 -50 -734 0
-268 50 0
-268 734 0
269 -268 -697 0
-269 268 0
-269 697 0
270 -813 -267 0
-270 813 0
-270 267 0
271 -770 -44 0
-271 770 0
-271 44 0
272 -271 -18 0
-272 271 0
-272 18 0
273 -814 -270 0
-273 814 0
-273 270 0
274 -762 -10 0
-274 762 0
-274 10 0
275 -274 -806 0
-275 274 0
-275 806 0
276 -815 -273 0
-276 815 0
-276 273 0
277 -41 -20 0
-277 41 0
-277 20 0
278 -277 -37 0
-278 277 0
-278 37 0
279 -816 -276 0
-279 816 0
-279 276 0
280 -725 -719 0
-280 725 0
-280 719 0
281 -280 -787 0
-281 280 0
-281 787 0
282 -817 -279 0
-282 817 0
-282 279 0
283 -734 -693 0
-283 734 0
-283 693 0
284 -283 -787 0
-284 283 0
-284 787 0
285 -818 -282 0
-285 818 0
-285 282 0
286 -31 -24 0
-286 31 0
-286 24 0
287 -286 -34 0
-287 286 0
-287 34 0
288 -819 -285 0
-288 819 0
-288 285 0
289 -722 -14 0
-289 722 0
-289 14 0
290 -289 -19 0
-290 289 0
-290 19 0
291 -820 -288 0
-291 820 0
-291 288 0
292 -27 -13 0
-292 27 0
-292 13 0
293 -292 -821 0
-293 292 0
-293 821 0
294 -822 -291 0
-294 822 0
-294 291 0
295 -38 -2 0
-295 38 0
-295 2 0
296 -295 -734 0
-296 295 0
-296 734 0
297 -823 -294 0
-297 823 0
-297 294 0
298 -5 -693 0
-298 5 0
-298 693 0
299 -298 -771 0
-299 298 0
-299 771 0
300 -824 -297 0
-300 824 0
-300 297 0
301 -806 -743 0
-301 806 0
-301 743 0
302 -301 -50 0
-302 301 0
-302 50 0
303 -825 -300 0
-303 825 0
-303 300 0
304 -15 -8 0
-304 15 0
-304 8 0
305 -304 -741 0
-305 304 0
-305 741 0
306 -826 -303 0
-306 826 0
-306 303 0
307 -25 -695 0
-307 25 0
-307 695 0
308 -307 -31 0
-308 307 0
-308 31 0
309 -827 -306 0
-309 827 0
-309 306 0
310 -706 -11 0
-310 706 0
-310 11 0
311 -310 -739 0
-311 310 0
-311 739 0
312 -828 -309 0
-312 828 0
-312 309 0
313 -37 -30 0
-313 37 0
-313 30 0
314 -313 -28 0
-314 313 0
-314 28 0
315 -829 -312 0
-315 829 0
-315 312 0
316 -725 -21 0
-316 725 0
-316 21 0
317 -316 -713 0
-317 316 0
-317 713 0
318 -830 -315 0
-318 830 0
-318 315 0
319 -709 -708 0
-319 709 0
-319 708 0
320 -319 -821 0
-320 319 0
-320 821 0
321 -831 -318 0
-321 831 0
-321 318 0
322 -732 -2 0
-322 732 0
-322 2 0
323 -322 -744 0
-323 322 0
-323 744 0
324 -832 -321 0
-324 832 0
-324 321 0
325 -29 -4 0
-325 29 0
-325 4 0
326 -325 -39 0
-326 325 0
-326 39 0
327 -833 -324 0
-327 833 0
-327 324 0
328 -770 -36 0
-328 770 0
-328 36 0
329 -328 -47 0
-329 328 0
-329 47 0
330 -834 -327 0
-330 834 0
-330 327 0
331 -43 -700 0
-331 43 0
-331 700 0
332 -331 -835 0
-332 331 0
-332 835 0
333 -836 -330 0
-333 836 0
-333 330 0
334 -780 -728 0
-334 780 0
-334 728 0
335 -334 -821 0
-335 334 0
-335 821 0
336 -837 -333 0
-336 837 0
-336 333 0
337 -36 -16 0
-337 36 0
-337 16 0
338 -337 -697 0
-338 337 0
-338 697 0
339 -838 -336 0
-339 838 0
-339 336 0
340 -765 -738 0
-340 765 0
-340 738 0
341 -340 -50 0
-341 340 0
-341 50 0
342 -839 -339 0
-342 839 0
-342 339 0
343 -771 -22 0
-343 771 0
-343 22 0
344 -343 -744 0
-344 343 0
-344 744 0
345 -840 -342 0
-345 840 0
-345 342 0
346 -806 -22 0
-346 806 0
-346 22 0
347 -346 -758 0
-347 346 0
-347 758 0
348 -841 -345 0
-348 841 0
-348 345 0
349 -765 -26 0
-349 765 0
-349 26 0
350 -349 -701 0
-350 349 0
-350 701 0
351 -842 -348 0
-351 842 0
-351 348 0
352 -36 -14 0
-352 36 0
-352 14 0
353 -352 -756 0
-353 352 0
-353 756 0
354 -843 -351 0
-354 843 0
-354 351 0
355 -749 -719 0
-355 749 0
-355 719 0
356 -355 -5 0
-356 355 0
-356 5 0
357 -844 -354 0
-357 844 0
-357 354 0
358 -29 -13 0
-358 29 0
-358 13 0
359 -358 -3 0
-359 358 0
-359 3 0
360 -845 -357 0
-360 845 0
-360 357 0
361 -749 -736 0
-361 749 0
-361 736 0
362 -361 -39 0
-362 361 0
-362 39 0
363 -846 -360 0
-363 846 0
-363 360 0
364 -756 -36 0
-364 756 0
-364 36 0
365 -364 -2 0
-365 364 0
-365 2 0
366 -847 -363 0
-366 847 0
-366 363 0
367 -241 -34 0
-367 241 0
-367 34 0
368 -848 -366 0
-368 848 0
-368 366 0
369 -780 -708 0
-369 780 0
-369 708 0
370 -369 -35 0
-370 369 0
-370 35 0
371 -849 -368 0
-371 849 0
-371 368 0
372 -762 -13 0
-372 762 0
-372 13 0
373 -372 -697 0
-373 372 0
-373 697 0
374 -850 -371 0
-374 850 0
-374 371 0
375 -765 -4 0
-375 765 0
-375 4 0
376 -375 -744 0
-376 375 0
-376 744 0
377 -851 -374 0
-377 851 0
-377 374 0
378 -720 -10 0
-378 720 0
-378 10 0
379 -378 -3 0
-379 378 0
-379 3 0
380 -852 -377 0
-380 852 0
-380 377 0
381 -26 -713 0
-381 26 0
-381 713 0
382 -381 -694 0
-382 381 0
-382 694 0
383 -853 -380 0
-383 853 0
-383 380 0
384 -806 -4 0
-384 806 0
-384 4 0
385 -384 -720 0
-385 384 0
-385 720 0
386 -854 -383 0
-386 854 0
-386 383 0
387 -24 -22 0
-387 24 0
-387 22 0
388 -387 -750 0
-388 387 0
-388 750 0
389 -855 -386 0
-389 855 0
-389 386 0
390 -29 -696 0
-390 29 0
-390 696 0
391 -390 -16 0
-391 390 0
-391 16 0
392 -856 -389 0
-392 856 0
-392 389 0
393 -806 -750 0
-393 806 0
-393 750 0
394 -393 -780 0
-394 393 0
-394 780 0
395 -857 -392 0
-395 857 0
-395 392 0
396 -739 -694 0
-396 739 0
-396 694 0
397 -396 -9 0
-397 396 0
-397 9 0
398 -858 -395 0
-398 858 0
-398 395 0
399 -26 -4 0
-399 26 0
-399 4 0
400 -399 -739 0
-400 399 0
-400 739 0
401 -859 -398 0
-401 859 0
-401 398 0
402 -765 -736 0
-402 765 0
-402 736 0
403 -402 -762 0
-403 402 0
-403 762 0
404 -860 -401 0
-404 860 0
-404 401 0
405 -32 -738 0
-405 32 0
-405 738 0
406 -405 -762 0
-406 405 0
-406 762 0
407 -861 -404 0
-407 861 0
-407 404 0
408 -780 -45 0
-408 780 0
-408 45 0
409 -408 -17 0
-409 408 0
-409 17 0
410 -862 -407 0
-410 862 0
-410 407 0
411 -765 -31 0
-411 765 0
-411 31 0
412 -411 -780 0
-412 411 0
-412 780 0
413 -863 -410 0
-413 863 0
-413 410 0
414 -46 -693 0
-414 46 0
-414 693 0
415 -414 -37 0
-415 414 0
-415 37 0
416 -864 -413 0
-416 864 0
-416 413 0
417 -46 -704 0
-417 46 0
-417 704 0
418 -417 -697 0
-418 417 0
-418 697 0
419 -865 -416 0
-419 865 0
-419 416 0
420 -761 -695 0
-420 761 0
-420 695 0
421 -420 -694 0
-421 420 0
-421 694 0
422 -866 -419 0
-422 866 0
-422 419 0
423 -38 -14 0
-423 38 0
-423 14 0
424 -423 -801 0
-424 423 0
-424 801 0
425 -867 -422 0
-425 867 0
-425 422 0
426 -32 -11 0
-426 32 0
-426 11 0
427 -426 -21 0
-427 426 0
-427 21 0
428 -868 -425 0
-428 868 0
-428 425 0
429 -41 -722 0
-429 41 0
-429 722 0
430 -429 -12 0
-430 429 0
-430 12 0
431 -869 -428 0
-431 869 0
-431 428 0
432 -36 -706 0
-432 36 0
-432 706 0
433 -432 -770 0
-433 432 0
-433 770 0
434 -870 -431 0
-434 870 0
-434 431 0
435 -32 -708 0
-435 32 0
-435 708 0
436 -435 -21 0
-436 435 0
-436 21 0
437 -871 -434 0
-437 871 0
-437 434 0
438 -799 -692 0
-438 799 0
-438 692 0
439 -438 -806 0
-439 438 0
-439 806 0
440 -872 -437 0
-440 872 0
-440 437 0
441 -196 -39 0
-441 196 0
-441 39 0
442 -873 -440 0
-442 873 0
-442 440 0
443 -27 -762 0
-443 27 0
-443 762 0
444 -443 -18 0
-444 443 0
-444 18 0
445 -874 -442 0
-445 874 0
-445 442 0
446 -783 -11 0
-446 783 0
-446 11 0
447 -446 -787 0
-447 446 0
-447 787 0
448 -875 -445 0
-448 875 0
-448 445 0
449 -31 -22 0
-449 31 0
-449 22 0
450 -449 -726 0
-450 449 0
-450 726 0
451 -876 -448 0
-451 876 0
-451 448 0
452 -27 -20 0
-452 27 0
-452 20 0
453 -452 -697 0
-453 452 0
-453 697 0
454 -877 -451 0
-454 877 0
-454 451 0
455 -799 -725 0
-455 799 0
-455 725 0
456 -455 -39 0
-456 455 0
-456 39 0
457 -878 -454 0
-457 878 0
-457 454 0
458 -732 -13 0
-458 732 0
-458 13 0
459 -458 -709 0
-459 458 0
-459 709 0
460 -879 -457 0
-460 879 0
-460 457 0
461 -32 -29 0
-461 32 0
-461 29 0
462 -461 -744 0
-462 461 0
-462 744 0
463 -880 -460 0
-463 880 0
-463 460 0
464 -770 -20 0
-464 770 0
-464 20 0
465 -464 -711 0
-465 464 0
-465 711 0
466 -881 -463 0
-466 881 0
-466 463 0
467 -799 -706 0
-467 799 0
-467 706 0
468 -467 -692 0
-468 467 0
-468 692 0
469 -882 -466 0
-469 882 0
-469 466 0
470 -13 -700 0
-470 13 0
-470 700 0
471 -470 -18 0
-471 470 0
-471 18 0
472 -883 -469 0
-472 883 0
-472 469 0
473 -736 -22 0
-473 736 0
-473 22 0
474 -473 -18 0
-474 473 0
-474 18 0
475 -884 -472 0
-475 884 0
-475 472 0
476 -765 -728 0
-476 765 0
-476 728 0
477 -476 -32 0
-477 476 0
-477 32 0
478 -885 -475 0
-478 885 0
-478 475 0
479 -30 -700 0
-479 30 0
-479 700 0
480 -479 -20 0
-480 479 0
-480 20 0
481 -886 -478 0
-481 886 0
-481 478 0
482 -24 -700 0
-482 24 0
-482 700 0
483 -482 -787 0
-483 482 0
-483 787 0
484 -887 -481 0
-484 887 0
-484 481 0
485 -770 -11 0
-485 770 0
-485 11 0
486 -485 -39 0
-486 485 0
-486 39 0
487 -888 -484 0
-487 888 0
-487 484 0
488 -706 -693 0
-488 706 0
-488 693 0
489 -488 -801 0
-489 488 0
-489 801 0
490 -889 -487 0
-490 889 0
-490 487 0
491 -47 -33 0
-491 47 0
-491 33 0
492 -491 -752 0
-492 491 0
-492 752 0
493 -890 -490 0
-493 890 0
-493 490 0
494 -701 -719 0
-494 701 0
-494 719 0
495 -494 -40 0
-495 494 0
-495 40 0
496 -891 -493 0
-496 891 0
-496 493 0
497 -4 -693 0
-497 4 0
-497 693 0
498 -497 -20 0
-498 497 0
-498 20 0
499 -892 -496 0
-499 892 0
-499 496 0
500 -761 -708 0
-500 761 0
-500 708 0
501 -500 -806 0
-501 500 0
-501 806 0
502 -893 -499 0
-502 893 0
-502 499 0
503 -761 -20 0
-503 761 0
-503 20 0
504 -503 -726 0
-504 503 0
-504 726 0
505 -894 -502 0
-505 894 0
-505 502 0
506 -787 -713 0
-506 787 0
-506 713 0
507 -506 -16 0
-507 506 0
-507 16 0
508 -895 -505 0
-508 895 0
-508 505 0
509 -736 -700 0
-509 736 0
-509 700 0
510 -509 -15 0
-510 509 0
-510 15 0
511 -896 -508 0
-511 896 0
-511 508 0
512 -41 -7 0
-512 41 0
-512 7 0
513 -512 -35 0
-513 512 0
-513 35 0
514 -897 -511 0
-514 897 0
-514 511 0
515 -780 -706 0
-515 780 0
-515 706 0
516 -515 -821 0
-516 515 0
-516 821 0
517 -898 -514 0
-517 898 0
-517 514 0
518 -722 -696 0
-518 722 0
-518 696 0
519 -518 -2 0
-519 518 0
-519 2 0
520 -899 -517 0
-520 899 0
-520 517 0
521 -771 -806 0
-521 771 0
-521 806 0
522 -521 -35 0
-522 521 0
-522 35 0
523 -900 -520 0
-523 900 0
-523 520 0
524 -787 -762 0
-524 787 0
-524 762 0
525 -524 -758 0
-525 524 0
-525 758 0
526 -901 -523 0
-526 901 0
-526 523 0
527 -42 -713 0
-527 42 0
-527 713 0
528 -527 -697 0
-528 527 0
-528 697 0
529 -902 -526 0
-529 902 0
-529 526 0
530 -411 -726 0
-530 411 0
-530 726 0
531 -903 -529 0
-531 903 0
-531 529 0
532 -37 -722 0
-532 37 0
-532 722 0
533 -532 -23 0
-533 532 0
-533 23 0
534 -904 -531 0
-534 904 0
-534 531 0
535 -765 -704 0
-535 765 0
-535 704 0
536 -535 -750 0
-536 535 0
-536 750 0
537 -905 -534 0
-537 905 0
-537 534 0
538 -787 -752 0
-538 787 0
-538 752 0
539 -538 -776 0
-539 538 0
-539 776 0
540 -906 -537 0
-540 906 0
-540 537 0
541 -29 -25 0
-541 29 0
-541 25 0
542 -541 -50 0
-542 541 0
-542 50 0
543 -907 -540 0
-543 907 0
-543 540 0
544 -32 -13 0
-544 32 0
-544 13 0
545 -544 -771 0
-545 544 0
-545 771 0
546 -908 -543 0
-546 908 0
-546 543 0
547 -765 -10 0
-547 765 0
-547 10 0
548 -547 -783 0
-548 547 0
-548 783 0
549 -909 -546 0
-549 909 0
-549 546 0
550 -39 -693 0
-550 39 0
-550 693 0
551 -550 -50 0
-551 550 0
-551 50 0
552 -910 -549 0
-552 910 0
-552 549 0
553 -720 -708 0
-553 720 0
-553 708 0
554 -553 -711 0
-554 553 0
-554 711 0
555 -911 -552 0
-555 911 0
-555 552 0
556 -15 -10 0
-556 15 0
-556 10 0
557 -556 -720 0
-557 556 0
-557 720 0
558 -912 -555 0
-558 912 0
-558 555 0
559 -497 -780 0
-559 497 0
-559 780 0
560 -913 -558 0
-560 913 0
-560 558 0
561 -31 -5 0
-561 31 0
-561 5 0
562 -561 -9 0
-562 561 0
-562 9 0
563 -914 -560 0
-563 914 0
-563 560 0
564 -695 -2 0
-564 695 0
-564 2 0
565 -564 -31 0
-565 564 0
-565 31 0
566 -915 -563 0
-566 915 0
-566 563 0
567 -39 -728 0
-567 39 0
-567 728 0
568 -567 -16 0
-568 567 0
-568 16 0
569 -916 -566 0
-569 916 0
-569 566 0
570 -744 -28 0
-570 744 0
-570 28 0
571 -570 -758 0
-571 570 0
-571 758 0
572 -917 -569 0
-572 917 0
-572 569 0
573 -47 -765 0
-573 47 0
-573 765 0
574 -573 -754 0
-574 573 0
-574 754 0
575 -918 -572 0
-575 918 0
-575 572 0
576 -438 -18 0
-576 438 0
-576 18 0
577 -919 -575 0
-577 919 0
-577 575 0
578 -23 -706 0
-578 23 0
-578 706 0
579 -578 -835 0
-579 578 0
-579 835 0
580 -920 -577 0
-580 920 0
-580 577 0
581 -30 -13 0
-581 30 0
-581 13 0
582 -581 -2 0
-582 581 0
-582 2 0
583 -921 -580 0
-583 921 0
-583 580 0
584 -12 -2 0
-584 12 0
-584 2 0
585 -584 -9 0
-585 584 0
-585 9 0
586 -922 -583 0
-586 922 0
-586 583 0
587 -29 -24 0
-587 29 0
-587 24 0
588 -587 -44 0
-588 587 0
-588 44 0
589 -923 -586 0
-589 923 0
-589 586 0
590 -33 -696 0
-590 33 0
-590 696 0
591 -590 -695 0
-591 590 0
-591 695 0
592 -924 -589 0
-592 924 0
-592 589 0
593 -720 -704 0
-593 720 0
-593 704 0
594 -593 -754 0
-594 593 0
-594 754 0
595 -925 -592 0
-595 925 0
-595 592 0
596 -771 -695 0
-596 771 0
-596 695 0
597 -596 -39 0
-597 596 0
-597 39 0
598 -926 -595 0
-598 926 0
-598 595 0
599 -704 -695 0
-599 704 0
-599 695 0
600 -599 -744 0
-600 599 0
-600 744 0
601 -927 -598 0
-601 927 0
-601 598 0
602 -29 -704 0
-602 29 0
-602 704 0
603 -602 -706 0
-603 602 0
-603 706 0
604 -928 -601 0
-604 928 0
-604 601 0
605 -770 -761 0
-605 770 0
-605 761 0
606 -605 -694 0
-606 605 0
-606 694 0
607 -929 -604 0
-607 929 0
-607 604 0
608 -36 -8 0
-608 36 0
-608 8 0
609 -608 -801 0
-609 608 0
-609 801 0
610 -930 -607 0
-610 930 0
-610 607 0
611 -15 -693 0
-611 15 0
-611 693 0
612 -611 -719 0
-612 611 0
-612 719 0
613 -931 -610 0
-613 931 0
-613 610 0
614 -741 -752 0
-614 741 0
-614 752 0
615 -614 -758 0
-615 614 0
-615 758 0
616 -932 -613 0
-616 932 0
-616 613 0
617 -27 -11 0
-617 27 0
-617 11 0
618 -617 -8 0
-618 617 0
-618 8 0
619 -933 -616 0
-619 933 0
-619 616 0
620 -46 -6 0
-620 46 0
-620 6 0
621 -620 -776 0
-621 620 0
-621 776 0
622 -934 -619 0
-622 934 0
-622 619 0
623 -749 -26 0
-623 749 0
-623 26 0
624 -623 -713 0
-624 623 0
-624 713 0
625 -935 -622 0
-625 935 0
-625 622 0
626 -39 -719 0
-626 39 0
-626 719 0
627 -626 -3 0
-627 626 0
-627 3 0
628 -936 -625 0
-628 936 0
-628 625 0
629 -696 -2 0
-629 696 0
-629 2 0
630 -629 -47 0
-630 629 0
-630 47 0
631 -937 -628 0
-631 937 0
-631 628 0
632 -761 -10 0
-632 761 0
-632 10 0
633 -632 -15 0
-633 632 0
-633 15 0
634 -938 -631 0
-634 938 0
-634 631 0
635 -739 -14 0
-635 739 0
-635 14 0
636 -635 -25 0
-636 635 0
-636 25 0
637 -939 -634 0
-637 939 0
-637 634 0
638 -104 -744 0
-638 104 0
-638 744 0
639 -940 -637 0
-639 940 0
-639 637 0
640 -33 -29 0
-640 33 0
-640 29 0
641 -640 -806 0
-641 640 0
-641 806 0
642 -941 -639 0
-642 941 0
-642 639 0
643 -280 -44 0
-643 280 0
-643 44 0
644 -942 -642 0
-644 942 0
-644 642 0
645 -736 -719 0
-645 736 0
-645 719 0
646 -645 -48 0
-646 645 0
-646 48 0
647 -943 -644 0
-647 943 0
-647 644 0
648 -765 -713 0
-648 765 0
-648 713 0
649 -648 -776 0
-649 648 0
-649 776 0
650 -944 -647 0
-650 944 0
-650 647 0
651 -15 -704 0
-651 15 0
-651 704 0
652 -651 -32 0
-652 651 0
-652 32 0
653 -945 -650 0
-653 945 0
-653 650 0
654 -27 -713 0
-654 27 0
-654 713 0
655 -654 -739 0
-655 654 0
-655 739 0
656 -946 -653 0
-656 946 0
-656 653 0
657 -743 -696 0
-657 743 0
-657 696 0
658 -657 -780 0
-658 657 0
-658 780 0
659 -947 -656 0
-659 947 0
-659 656 0
660 -20 -700 0
-660 20 0
-660 700 0
661 -660 -22 0
-661 660 0
-661 22 0
662 -948 -659 0
-662 948 0
-662 659 0
663 -799 -726 0
-663 799 0
-663 726 0
664 -663 -821 0
-664 663 0
-664 821 0
665 -949 -662 0
-665 949 0
-665 662 0
666 -46 -692 0
-666 46 0
-666 692 0
667 -666 -771 0
-667 666 0
-667 771 0
668 -950 -665 0
-668 950 0
-668 665 0
669 -799 -4 0
-669 799 0
-669 4 0
670 -669 -3 0
-670 669 0
-670 3 0
671 -951 -668 0
-671 951 0
-671 668 0
672 -783 -20 0
-672 783 0
-672 20 0
673 -672 -40 0
-673 672 0
-673 40 0
674 -952 -671 0
-674 952 0
-674 671 0
675 -49 -34 0
-675 49 0
-675 34 0
676 -675 -835 0
-676 675 0
-676 835 0
677 -953 -674 0
-677 953 0
-677 674 0
678 -744 -706 0
-678 744 0
-678 706 0
679 -678 -835 0
-679 678 0
-679 835 0
680 -954 -677 0
-680 954 0
-680 677 0
681 -20 -713 0
-681 20 0
-681 713 0
682 -681 -50 0
-682 681 0
-682 50 0
683 -955 -680 0
-683 955 0
-683 680 0
684 -38 -20 0
-684 38 0
-684 20 0
685 -684 -771 0
-685 684 0
-685 771 0
686 -956 -683 0
-686 956 0
-686 683 0
687 -750 -9 0
-687 750 0
-687 9 0
688 -687 -835 0
-688 687 0
-688 835 0
689 -957 -686 0
-689 957 0
-689 686 0
690 -581 -770 0
-690 581 0
-690 770 0
691 -958 -689 0
-691 958 0
-691 689 0
-692 -2 0
692 2 0
-693 -1 0
693 1 0
-694 -3 0
694 3 0
-695 -5 0
695 5 0
-696 -4 0
696 4 0
-697 -6 0
697 6 0
-698 -54 0
698 54 0
-699 -52 0
699 52 0
-700 -7 0
700 7 0
-701 -9 0
701 9 0
-702 -57 0
702 57 0
-703 -11 0
703 11 0
-704 -10 0
704 10 0
-705 -60 0
705 60 0
-706 -14 0
706 14 0
-707 -63 0
707 63 0
-708 -15 0
708 15 0
-709 -16 0
709 16 0
-710 -66 0
710 66 0
-711 -18 0
711 18 0
-712 -69 0
712 69 0
-713 -19 0
713 19 0
-714 -72 0
714 72 0
-715 -21 0
715 21 0
-716 -75 0
716 75 0
-717 -78 0
717 78 0
-718 -81 0
718 81 0
-719 -8 0
719 8 0
-720 -25 0
720 25 0
-721 -84 0
721 84 0
-722 -26 0
722 26 0
-723 -87 0
723 87 0
-724 -90 0
724 90 0
-725 -27 0
725 27 0
-726 -23 0
726 23 0
-727 -93 0
727 93 0
-728 -13 0
728 13 0
-729 -96 0
729 96 0
-730 -99 0
730 99 0
-731 -102 0
731 102 0
-732 -29 0
732 29 0
-733 -105 0
733 105 0
-734 -31 0
734 31 0
-735 -108 0
735 108 0
-736 -24 0
736 24 0
-737 -111 0
737 111 0
-738 -30 0
738 30 0
-739 -22 0
739 22 0
-740 -114 0
740 114 0
-741 -28 0
741 28 0
-742 -117 0
742 117 0
-743 -33 0
743 33 0
-744 -34 0
744 34 0
-745 -120 0
745 120 0
-746 -123 0
746 123 0
-747 -126 0
747 126 0
-748 -129 0
748 129 0
-749 -38 0
749 38 0
-750 -39 0
750 39 0
-751 -132 0
751 132 0
-752 -12 0
752 12 0
-753 -135 0
753 135 0
-754 -40 0
754 40 0
-755 -137 0
755 137 0
-756 -41 0
756 41 0
-757 -140 0
757 140 0
-758 -35 0
758 35 0
-759 -143 0
759 143 0
-760 -146 0
760 146 0
-761 -42 0
761 42 0
-762 -20 0
762 20 0
-763 -149 0
763 149 0
-764 -152 0
764 152 0
-765 -45 0
765 45 0
-766 -155 0
766 155 0
-767 -158 0
767 158 0
-768 -161 0
768 161 0
-769 -164 0
769 164 0
-770 -46 0
770 46 0
-771 -47 0
771 47 0
-772 -167 0
772 167 0
-773 -170 0
773 170 0
-774 -173 0
774 173 0
-775 -176 0
775 176 0
-776 -17 0
776 17 0
-777 -179 0
777 179 0
-778 -182 0
778 182 0
-779 -185 0
779 185 0
-780 -49 0
780 49 0
-781 -188 0
781 188 0
-782 -191 0
782 191 0
-783 -32 0
783 32 0
-784 -194 0
784 194 0
-785 -197 0
785 197 0
-786 -200 0
786 200 0
-787 -50 0
787 50 0
-788 -203 0
788 203 0
-789 -206 0
789 206 0
-790 -209 0
790 209 0
-791 -212 0
791 212 0
-792 -215 0
792 215 0
-793 -218 0
793 218 0
-794 -221 0
794 221 0
-795 -224 0
795 224 0
-796 -227 0
796 227 0
-797 -230 0
797 230 0
-798 -233 0
798 233 0
-799 -36 0
799 36 0
-800 -236 0
800 236 0
-801 -37 0
801 37 0
-802 -239 0
802 239 0
-803 -242 0
803 242 0
-804 -245 0
804 245 0
-805 -248 0
805 248 0
-806 -43 0
806 43 0
-807 -251 0
807 251 0
-808 -254 0
808 254 0
-809 -257 0
809 257 0
-810 -260 0
810 260 0
-811 -263 0
811 263 0
-812 -266 0
812 266 0
-813 -269 0
813 269 0
-814 -272 0
814 272 0
-815 -275 0
815 275 0
-816 -278 0
816 278 0
-817 -281 0
817 281 0
-818 -284 0
818 284 0
-819 -287 0
819 287 0
-820 -290 0
820 290 0
-821 -48 0
821 48 0
-822 -293 0
822 293 0
-823 -296 0
823 296 0
-824 -299 0
824 299 0
-825 -302 0
825 302 0
-826 -305 0
826 305 0
-827 -308 0
827 308 0
-828 -311 0
828 311 0
-829 -314 0
829 314 0
-830 -317 0
830 317 0
-831 -320 0
831 320 0
-832 -323 0
832 323 0
-833 -326 0
833 326 0
-834 -329 0
834 329 0
-835 -44 0
835 44 0
-836 -332 0
836 332 0
-837 -335 0
837 335 0
-838 -338 0
838 338 0
-839 -341 0
839 341 0
-840 -344 0
840 344 0
-841 -347 0
841 347 0
-842 -350 0
842 350 0
-843 -353 0
843 353 0
-844 -356 0
844 356 0
-845 -359 0
845 359 0
-846 -362 0
846 362 0
-847 -365 0
847 365 0
-848 -367 0
848 367 0
-849 -370 0
849 370 0
-850 -373 0
850 373 0
-851 -376 0
851 376 0
-852 -379 0
852 379 0
-853 -382 0
853 382 0
-854 -385 0
854 385 0
-855 -388 0
855 388 0
-856 -391 0
856 391 0
-857 -394 0
857 394 0
-858 -397 0
858 397 0
-859 -400 0
859 400 0
-860 -403 0
860 403 0
-861 -406 0
861 406 0
-862 -409 0
862 409 0
-863 -412 0
863 412 0
-864 -415 0
864 415 0
-865 -418 0
865 418 0
-866 -421 0
866 421 0
-867 -424 0
867 424 0
-868 -427 0
868 427 0
-869 -430 0
869 430 0
-870 -433 0
870 433 0
-871 -436 0
871 436 0
-872 -439 0
872 439 0
-873 -441 0
873 441 0
-874 -444 0
874 444 0
-875 -447 0
875 447 0
-876 -450 0
876 450 0
-877 -453 0
877 453 0
-878 -456 0
878 456 0
-879 -459 0
879 459 0
-880 -462 0
880 462 0
-881 -465 0
881 465 0
-882 -468 0
882 468 0
-883 -471 0
883 471 0
-884 -474 0
884 474 0
-885 -477 0
885 477 0
-886 -480 0
886 480 0
-887 -483 0
887 483 0
-888 -486 0
888 486 0
-889 -489 0
889 489 0
-890 -492 0
890 492 0
-891 -495 0
891 495 0
-892 -498 0
892 498 0
-893 -501 0
893 501 0
-894 -504 0
894 504 0
-895 -507 0
895 507 0
-896 -510 0
896 510 0
-897 -513 0
897 513 0
-898 -516 0
898 516 0
-899 -519 0
899 519 0
-900 -522 0
900 522 0
-901 -525 0
901 525 0
-902 -528 0
902 528 0
-903 -530 0
903 530 0
-904 -533 0
904 533 0
-905 -536 0
905 536 0
-906 -539 0
906 539 0
-907 -542 0
907 542 0
-908 -545 0
908 545 0
-909 -548 0
909 548 0
-910 -551 0
910 551 0
-911 -554 0
911 554 0
-912 -557 0
912 557 0
-913 -559 0
913 559 0
-914 -562 0
914 562 0
-915 -565 0
915 565 0
-916 -568 0
916 568 0
-917 -571 0
917 571 0
-918 -574 0
918 574 0
-919 -576 0
919 576 0
-920 -579 0
920 579 0
-921 -582 0
921 582 0
-922 -585 0
922 585 0
-923 -588 0
923 588 0
-924 -591 0
924 591 0
-925 -594 0
925 594 0
-926 -597 0
926 597 0
-927 -600 0
927 600 0
-928 -603 0
928 603 0
-929 -606 0
929 606 0
-930 -609 0
930 609 0
-931 -612 0
931 612 0
-932 -615 0
932 615 0
-933 -618 0
933 618 0
-934 -621 0
934 621 0
-935 -624 0
935 624 0
-936 -627 0
936 627 0
-937 -630 0
937 630 0
-938 -633 0
938 633 0
-939 -636 0
939 636 0
-940 -638 0
940 638 0
-941 -641 0
941 641 0
-942 -643 0
942 643 0
-943 -646 0
943 646 0
-944 -649 0
944 649 0
-945 -652 0
945 652 0
-946 -655 0
946 655 0
-947 -658 0
947 658 0
-948 -661 0
948 661 0
-949 -664 0
949 664 0
-950 -667 0
950 667 0
-951 -670 0
951 670 0
-952 -673 0
952 673 0
-953 -676 0
953 676 0
-954 -679 0
954 679 0
-955 -682 0
955 682 0
-956 -685 0
956 685 0
-957 -688 0
957 688 0
-958 -690 0
958 690 0
691 0
